
Gurobi 11.0.3 (linux64) logging started Sat Nov 23 19:49:46 2024

Set parameter LogFile to value "/home/yihong/Coding/OR_SUC/SUC_results_bigM100000_thread4/case24_ieee_rts_theta0.1_epsilon0.025_gurobi_seed950000_num_gen100_N_WDR50_load_scaling_factor1_exact_T24quadra_cost.txt"
Set parameter TimeLimit to value 3600
Gurobi Optimizer version 11.0.3 build v11.0.3rc0 (linux64 - "Ubuntu 20.04.6 LTS")

CPU model: AMD EPYC 7532 32-Core Processor, instruction set [SSE2|AVX|AVX2]
Thread count: 64 physical cores, 128 logical processors, using up to 4 threads

Optimize a model with 50071 rows, 29861 columns and 508398 nonzeros
Model fingerprint: 0x08187b6a
Model has 2400 quadratic constraints
Variable types: 27411 continuous, 2450 integer (2450 binary)
Coefficient statistics:
  Matrix range     [3e-04, 1e+05]
  QMatrix range    [2e-03, 8e-03]
  QLMatrix range   [3e-01, 6e+01]
  Objective range  [1e+00, 1e+00]
  Bounds range     [1e+00, 1e+00]
  RHS range        [1e+00, 1e+05]
Presolve removed 40363 rows and 12950 columns
Presolve time: 0.18s
Presolved: 9708 rows, 16911 columns, 50953 nonzeros
Presolved model has 2400 quadratic constraint(s)
Variable types: 14476 continuous, 2435 integer (2435 binary)

Root relaxation: objective 3.239510e+04, 7337 iterations, 0.15 seconds (0.21 work units)

    Nodes    |    Current Node    |     Objective Bounds      |     Work
 Expl Unexpl |  Obj  Depth IntInf | Incumbent    BestBd   Gap | It/Node Time

     0     0 32395.1035    0   26          - 32395.1035      -     -    0s
     0     0 299775.723    0  784          - 299775.723      -     -    0s
     0     0 317231.782    0  711          - 317231.782      -     -    0s
     0     0 593291.040    0  691          - 593291.040      -     -    1s
     0     0 593340.828    0  522          - 593340.828      -     -    1s
     0     0 593596.083    0  411          - 593596.083      -     -    1s
     0     0 593596.693    0  411          - 593596.693      -     -    1s
     0     0 593639.406    0  411          - 593639.406      -     -    1s
     0     0 593639.476    0  411          - 593639.476      -     -    1s
     0     2 593639.486    0  411          - 593639.486      -     -    1s
H  772   671                    597317.28460 593676.229  0.61%  40.4    4s
*  772   671             196    597317.28460 593676.229  0.61%  40.4    4s
   839   578 593950.406   33  411 597317.285 593703.215  0.61%  40.2    7s
   852   587 593931.732    7  353 597317.285 593874.550  0.58%  39.6   10s
   884   613 593964.535   16  324 597317.285 593886.337  0.57%  59.2   15s
  1189   912 594274.344   58  246 597317.285 593890.384  0.57%  84.0   20s
  2170  1461 594273.013   34  295 597317.285 593897.117  0.57%  70.5   25s
H 3814  1023                    594671.03038 593900.303  0.13%  64.1   29s
* 3814  1023             182    594671.03038 593900.303  0.13%  64.2   29s
  3931  1122     cutoff  114      594671.030 593901.466  0.13%  65.1   30s
H 4389  1245                    594571.83975 593904.275  0.11%  63.7   31s
* 4389  1245              97    594571.83975 593904.275  0.11%  63.7   31s
  5500  2424 594013.393   27  248 594571.840 593914.066  0.11%  61.3   35s
H 5545  2224                    594470.91560 593914.066  0.09%  61.2   35s
* 5545  2224              70    594470.91560 593914.066  0.09%  61.2   35s

Cutting planes:
  Gomory: 15
  Cover: 10
  Implied bound: 43
  MIR: 98
  Flow cover: 22
  RLT: 11

Explored 5970 nodes (386036 simplex iterations) in 36.56 seconds (46.23 work units)
Thread count was 4 (of 128 available processors)

Solution count 5: 594471 594471 594572 ... 597317

Optimal solution found (tolerance 1.00e-03)
Best objective 5.944709105472e+05, best bound 5.939216524995e+05, gap 0.0924%
